29 29
24
3 3 5 14
3 4 12 10
3 5 5 17
3 6 9 0
3 7 5 22
3 8 9 6
3 9 18 0
3 10 12 0
3 11 15 0
3 15 12 14
3 18 15 11
3 20 18 9
4 3 25 0
4 4 21 0
4 5 5 0
4 6 25 23
4 7 21 22
4 9 5 5
4 15 8 14
4 18 21 4
4 20 25 3
5 4 0 0
5 8 0 21
5 17 0 4
